
Gurobi 10.0.1 (mac64[arm]) logging started Mon Sep 18 22:58:37 2023

Set parameter LogFile to value "scenario_capacity/CAP_f/results/CAP_f_50/mip_log.txt"
Gurobi Optimizer version 10.0.1 build v10.0.1rc0 (mac64[arm])

CPU model: Apple M1
Thread count: 8 physical cores, 8 logical processors, using up to 8 threads

Optimize a model with 8470 rows, 31465 columns and 123860 nonzeros
Model fingerprint: 0x5143599f
Model has 44890 general constraints
Variable types: 5 continuous, 31460 integer (2040 binary)
Coefficient statistics:
  Matrix range     [6e-02, 3e+05]
  Objective range  [9e-02, 2e+05]
  Bounds range     [1e+00, 2e+07]
  RHS range        [4e+03, 2e+04]
  GenCon rhs range [1e+00, 1e+00]
  GenCon coe range [1e+00, 1e+00]

MIP start from previous solve produced solution with objective 5.67173e+07 (1.36s)
MIP start from previous solve produced solution with objective 5.66543e+07 (1.43s)
MIP start from previous solve produced solution with objective 5.66348e+07 (2.28s)
MIP start from previous solve produced solution with objective 5.6432e+07 (2.69s)
Loaded MIP start from previous solve with objective 5.6432e+07
Processed MIP start in 3.02 seconds (3.91 work units)

Presolve removed 6820 rows and 25545 columns
Presolve time: 0.70s
Presolved: 1650 rows, 5920 columns, 23713 nonzeros
Presolved model has 4 SOS constraint(s)
Variable types: 0 continuous, 5920 integer (34 binary)

Root relaxation: objective 5.226412e+07, 7288 iterations, 0.09 seconds (0.12 work units)

    Nodes    |    Current Node    |     Objective Bounds      |     Work
 Expl Unexpl |  Obj  Depth IntInf | Incumbent    BestBd   Gap | It/Node Time

     0     0 5.2264e+07    0  379 5.6432e+07 5.2264e+07  7.39%     -    3s
     0     0 5.2458e+07    0 1024 5.6432e+07 5.2458e+07  7.04%     -    3s
H    0     0                    5.643133e+07 5.2499e+07  6.97%     -    4s
     0     0 5.2499e+07    0  789 5.6431e+07 5.2499e+07  6.97%     -    4s
     0     0 5.2499e+07    0  799 5.6431e+07 5.2499e+07  6.97%     -    4s
     0     0 5.2499e+07    0  794 5.6431e+07 5.2499e+07  6.97%     -    4s
     0     0 5.2538e+07    0  889 5.6431e+07 5.2538e+07  6.90%     -    4s
     0     0 5.2589e+07    0  976 5.6431e+07 5.2589e+07  6.81%     -    4s
     0     0 5.2589e+07    0 1047 5.6431e+07 5.2589e+07  6.81%     -    4s
     0     0 5.2591e+07    0 1048 5.6431e+07 5.2591e+07  6.81%     -    4s
     0     0 5.2591e+07    0 1050 5.6431e+07 5.2591e+07  6.81%     -    4s
     0     0 5.2611e+07    0  748 5.6431e+07 5.2611e+07  6.77%     -    4s
     0     0 5.2611e+07    0  718 5.6431e+07 5.2611e+07  6.77%     -    4s
H    0     0                    5.643109e+07 5.2611e+07  6.77%     -    4s
     0     2 5.2611e+07    0  711 5.6431e+07 5.2611e+07  6.77%     -    4s
    17    24 5.3833e+07    5  747 5.6431e+07 5.3655e+07  4.92%   759    5s
H   34    40                    5.643022e+07 5.3752e+07  4.75%   676    5s
H   97    93                    5.643020e+07 5.3829e+07  4.61%   416    5s
H  101    93                    5.637432e+07 5.3829e+07  4.52%   406    5s
H  103    93                    5.611347e+07 5.3829e+07  4.07%   402    5s
H  503   237                    5.611254e+07 5.4003e+07  3.76%   297    7s
  1238   466 infeasible   10      5.6113e+07 5.4379e+07  3.09%   271   10s
H 1251   466                    5.611149e+07 5.4379e+07  3.09%   270   10s
H 1733   596                    5.611149e+07 5.4512e+07  2.85%   276   11s
H 1736   596                    5.611149e+07 5.4512e+07  2.85%   276   11s
H 1775   580                    5.603945e+07 5.4512e+07  2.73%   274   11s
H 2150   625                    5.603936e+07 5.4582e+07  2.60%   271   12s
H 2335   673                    5.599306e+07 5.4607e+07  2.48%   268   13s
H 2851   713                    5.599306e+07 5.4720e+07  2.27%   261   14s
  3036   722 5.5880e+07   15  198 5.5993e+07 5.4762e+07  2.20%   262   15s
H 3501   664                    5.599306e+07 5.4861e+07  2.02%   267   16s
  4738   519     cutoff   11      5.5993e+07 5.5192e+07  1.43%   279   20s
* 4919   525              36    5.594770e+07 5.5238e+07  1.27%   282   21s
H 6014  1427                    5.593167e+07 5.5901e+07  0.05%   285   24s
H 6165  1427                    5.593139e+07 5.5901e+07  0.05%   278   24s
  7225   745 5.5931e+07  167  376 5.5931e+07 5.5901e+07  0.05%   238   25s
H 7410   802                    5.593139e+07 5.5901e+07  0.05%   238   26s
H 8155   850                    5.593139e+07 5.5901e+07  0.05%   224   27s
H 8172   788                    5.593139e+07 5.5901e+07  0.05%   224   27s
  9943  1070 5.5901e+07   27  239 5.5931e+07 5.5901e+07  0.05%   206   30s
H10662  1192                    5.593139e+07 5.5901e+07  0.05%   199   30s
 14964  2200 infeasible   30      5.5931e+07 5.5901e+07  0.05%   178   35s
 19746  2985 infeasible   34      5.5931e+07 5.5901e+07  0.05%   163   40s
 24177  3562 5.5901e+07   30   74 5.5931e+07 5.5901e+07  0.05%   155   45s
 28902  3873 5.5901e+07   26  176 5.5931e+07 5.5901e+07  0.05%   151   50s
 34344  3878 5.5901e+07   24   89 5.5931e+07 5.5901e+07  0.05%   148   55s
 39690  3450 5.5901e+07   28  188 5.5931e+07 5.5901e+07  0.05%   148   60s
 43896  2817 5.5901e+07   34  126 5.5931e+07 5.5901e+07  0.05%   148   65s
 48252  1823 5.5901e+07   34  247 5.5931e+07 5.5901e+07  0.05%   149   70s
 51009    59 infeasible   32      5.5931e+07 5.5901e+07  0.05%   153   75s

Explored 52210 nodes (7836190 simplex iterations) in 75.62 seconds (108.02 work units)
Thread count was 8 (of 8 available processors)

Solution count 10: 5.59314e+07 5.59314e+07 5.59314e+07 ... 5.59931e+07

Optimal solution found (tolerance 1.00e-04)
Best objective 5.593138764800e+07, best bound 5.593138756719e+07, gap 0.0000%
